p cnf 256 1769
191 239 0
117 242 0
141 171 0
128 148 250 0
129 131 152 160 0
167 179 202 0
95 98 181 0
136 183 185 210 0
137 143 163 190 0
122 123 125 155 217 0
111 119 149 221 0
108 113 115 158 178 0
101 102 105 144 0
99 166 0
114 176 0
94 96 172 0
127 135 0
93 120 161 0
110 169 192 0
194 255 0
132 154 0
197 198 199 0
203 205 208 209 0
182 187 211 0
214 215 0
124 164 218 0
112 150 222 224 0
104 146 0
225 227 0
193 231 0
134 234 0
200 206 235 236 237 0
173 184 188 212 0
126 139 165 238 0
168 219 223 0
106 147 240 241 0
226 243 244 0
140 228 245 246 247 248 249 0
195 233 251 252 253 0
89 90 92 256 0
88 130 151 153 0
85 87 204 0
80 81 84 0
78 79 180 186 0
74 75 76 77 142 189 213 0
73 121 162 216 0
70 72 157 0
69 103 107 145 0
66 67 68 230 0
63 65 133 0
56 57 58 59 60 62 0
54 55 175 0
-53 -171 0
-171 -254 0
-131 -171 0
-52 -171 0
-53 -254 0
-53 -131 0
-52 -53 0
-131 -254 0
-52 -254 0
-52 -131 0
-155 -210 0
-210 -221 0
-158 -210 0
-105 -210 0
-155 -221 0
-155 -158 0
-105 -155 0
-158 -221 0
-105 -221 0
-105 -158 0
-49 -200 0
-48 -49 0
-48 -200 0
-219 -238 0
-238 -240 0
-238 -243 0
-228 -238 0
-238 -251 0
-219 -240 0
-219 -243 0
-219 -228 0
-219 -251 0
-240 -243 0
-228 -240 0
-240 -251 0
-228 -243 0
-243 -251 0
-228 -251 0
-47 -159 0
-84 -159 0
-159 -180 0
-159 -213 0
-159 -162 0
-47 -84 0
-47 -180 0
-47 -213 0
-47 -162 0
-84 -180 0
-84 -213 0
-84 -162 0
-180 -213 0
-162 -180 0
-162 -213 0
-100 -107 0
-107 -230 0
-65 -107 0
-62 -107 0
-107 -175 0
-100 -230 0
-65 -100 0
-62 -100 0
-100 -175 0
-65 -230 0
-62 -230 0
-175 -230 0
-62 -65 0
-65 -175 0
-62 -175 0
-159 -238 0
-107 -238 0
-107 -159 0
-171 -210 0
-171 -219 0
-47 -171 0
-100 -171 0
-210 -219 0
-47 -210 0
-100 -210 0
-47 -219 0
-100 -219 0
-47 -100 0
-53 -155 0
-53 -240 0
-53 -84 0
-53 -230 0
-155 -240 0
-84 -155 0
-155 -230 0
-84 -240 0
-230 -240 0
-84 -230 0
-221 -254 0
-49 -254 0
-243 -254 0
-180 -254 0
-65 -254 0
-49 -221 0
-221 -243 0
-180 -221 0
-65 -221 0
-49 -243 0
-49 -180 0
-49 -65 0
-180 -243 0
-65 -243 0
-65 -180 0
-131 -158 0
-131 -200 0
-131 -228 0
-131 -213 0
-62 -131 0
-158 -200 0
-158 -228 0
-158 -213 0
-62 -158 0
-200 -228 0
-200 -213 0
-62 -200 0
-213 -228 0
-62 -228 0
-62 -213 0
-52 -105 0
-48 -52 0
-52 -251 0
-52 -162 0
-52 -175 0
-48 -105 0
-105 -251 0
-105 -162 0
-105 -175 0
-48 -251 0
-48 -162 0
-48 -175 0
-162 -251 0
-175 -251 0
-162 -175 0
-45 -191 0
-45 -117 0
-45 -128 0
-44 -45 0
-117 -191 0
-128 -191 0
-44 -191 0
-117 -128 0
-44 -117 0
-44 -128 0
-167 -207 0
-98 -167 0
-143 -167 0
-123 -167 0
-98 -207 0
-143 -207 0
-123 -207 0
-98 -143 0
-98 -123 0
-123 -143 0
-42 -197 0
-42 -203 0
-197 -203 0
-41 -173 0
-139 -173 0
-109 -173 0
-173 -241 0
-173 -245 0
-41 -139 0
-41 -109 0
-41 -241 0
-41 -245 0
-109 -139 0
-139 -241 0
-139 -245 0
-109 -241 0
-109 -245 0
-241 -245 0
-130 -256 0
-51 -256 0
-204 -256 0
-81 -256 0
-77 -256 0
-51 -130 0
-130 -204 0
-81 -130 0
-77 -130 0
-51 -204 0
-51 -81 0
-51 -77 0
-81 -204 0
-77 -204 0
-77 -81 0
-157 -220 0
-103 -220 0
-40 -220 0
-68 -220 0
-60 -220 0
-103 -157 0
-40 -157 0
-68 -157 0
-60 -157 0
-40 -103 0
-68 -103 0
-60 -103 0
-40 -68 0
-40 -60 0
-60 -68 0
-45 -167 0
-42 -45 0
-45 -173 0
-45 -256 0
-45 -220 0
-42 -167 0
-167 -173 0
-167 -256 0
-167 -220 0
-42 -173 0
-42 -256 0
-42 -220 0
-173 -256 0
-173 -220 0
-220 -256 0
-191 -207 0
-191 -197 0
-41 -191 0
-130 -191 0
-157 -191 0
-197 -207 0
-41 -207 0
-130 -207 0
-157 -207 0
-41 -197 0
-130 -197 0
-157 -197 0
-41 -130 0
-41 -157 0
-130 -157 0
-98 -117 0
-117 -203 0
-117 -139 0
-51 -117 0
-103 -117 0
-98 -203 0
-98 -139 0
-51 -98 0
-98 -103 0
-139 -203 0
-51 -203 0
-103 -203 0
-51 -139 0
-103 -139 0
-51 -103 0
-128 -143 0
-109 -128 0
-128 -204 0
-40 -128 0
-109 -143 0
-143 -204 0
-40 -143 0
-109 -204 0
-40 -109 0
-40 -204 0
-44 -123 0
-44 -241 0
-44 -81 0
-44 -68 0
-123 -241 0
-81 -123 0
-68 -123 0
-81 -241 0
-68 -241 0
-68 -81 0
-77 -245 0
-60 -245 0
-60 -77 0
-149 -183 0
-115 -183 0
-115 -149 0
-38 -99 0
-96 -99 0
-38 -96 0
-93 -169 0
-37 -153 0
-153 -186 0
-142 -153 0
-37 -186 0
-37 -142 0
-142 -186 0
-72 -145 0
-72 -133 0
-59 -72 0
-133 -145 0
-59 -145 0
-59 -133 0
-93 -153 0
-72 -93 0
-72 -153 0
-37 -169 0
-145 -169 0
-37 -145 0
-99 -183 0
-38 -149 0
-149 -186 0
-133 -149 0
-38 -186 0
-38 -133 0
-133 -186 0
-96 -115 0
-115 -142 0
-59 -115 0
-96 -142 0
-59 -96 0
-59 -142 0
-35 -148 0
-129 -148 0
-34 -148 0
-35 -129 0
-34 -35 0
-34 -129 0
-190 -217 0
-178 -190 0
-102 -190 0
-178 -217 0
-102 -217 0
-102 -178 0
-33 -106 0
-33 -140 0
-33 -252 0
-106 -140 0
-106 -252 0
-140 -252 0
-32 -67 0
-32 -58 0
-32 -55 0
-58 -67 0
-55 -67 0
-55 -58 0
-148 -190 0
-33 -148 0
-32 -148 0
-33 -190 0
-32 -190 0
-32 -33 0
-35 -217 0
-35 -106 0
-35 -67 0
-106 -217 0
-67 -217 0
-67 -106 0
-129 -178 0
-129 -140 0
-58 -129 0
-140 -178 0
-58 -178 0
-58 -140 0
-34 -102 0
-34 -252 0
-34 -55 0
-102 -252 0
-55 -102 0
-55 -252 0
-141 -232 0
-91 -141 0
-141 -152 0
-31 -141 0
-91 -232 0
-152 -232 0
-31 -232 0
-91 -152 0
-31 -91 0
-31 -152 0
-122 -185 0
-111 -185 0
-113 -185 0
-144 -185 0
-111 -122 0
-113 -122 0
-122 -144 0
-111 -113 0
-111 -144 0
-113 -144 0
-83 -214 0
-83 -164 0
-83 -150 0
-83 -118 0
-164 -214 0
-150 -214 0
-118 -214 0
-150 -164 0
-118 -164 0
-118 -150 0
-61 -231 0
-174 -231 0
-231 -235 0
-29 -231 0
-61 -174 0
-61 -235 0
-29 -61 0
-174 -235 0
-29 -174 0
-29 -235 0
-79 -189 0
-79 -216 0
-189 -216 0
-141 -185 0
-83 -141 0
-141 -231 0
-83 -185 0
-185 -231 0
-83 -231 0
-122 -232 0
-214 -232 0
-61 -232 0
-122 -214 0
-61 -122 0
-61 -214 0
-91 -111 0
-91 -164 0
-91 -174 0
-79 -91 0
-111 -164 0
-111 -174 0
-79 -111 0
-164 -174 0
-79 -164 0
-79 -174 0
-113 -152 0
-150 -152 0
-152 -235 0
-152 -189 0
-113 -150 0
-113 -235 0
-113 -189 0
-150 -235 0
-150 -189 0
-189 -235 0
-31 -144 0
-31 -118 0
-29 -31 0
-31 -216 0
-118 -144 0
-29 -144 0
-144 -216 0
-29 -118 0
-118 -216 0
-29 -216 0
-86 -202 0
-95 -202 0
-86 -95 0
-120 -138 0
-110 -138 0
-138 -170 0
-138 -255 0
-132 -138 0
-110 -120 0
-120 -170 0
-120 -255 0
-120 -132 0
-110 -170 0
-110 -255 0
-110 -132 0
-170 -255 0
-132 -170 0
-132 -255 0
-50 -198 0
-50 -205 0
-50 -211 0
-50 -222 0
-50 -156 0
-198 -205 0
-198 -211 0
-198 -222 0
-156 -198 0
-205 -211 0
-205 -222 0
-156 -205 0
-211 -222 0
-156 -211 0
-156 -222 0
-104 -225 0
-39 -104 0
-104 -234 0
-104 -236 0
-27 -104 0
-39 -225 0
-225 -234 0
-225 -236 0
-27 -225 0
-39 -234 0
-39 -236 0
-27 -39 0
-234 -236 0
-27 -234 0
-27 -236 0
-26 -184 0
-165 -184 0
-184 -246 0
-184 -233 0
-26 -165 0
-26 -246 0
-26 -233 0
-165 -246 0
-165 -233 0
-233 -246 0
-92 -151 0
-30 -92 0
-76 -92 0
-92 -121 0
-30 -151 0
-76 -151 0
-121 -151 0
-30 -76 0
-30 -121 0
-76 -121 0
-138 -202 0
-50 -202 0
-104 -202 0
-184 -202 0
-92 -202 0
-50 -138 0
-104 -138 0
-138 -184 0
-92 -138 0
-50 -104 0
-50 -184 0
-50 -92 0
-104 -184 0
-92 -104 0
-92 -184 0
-86 -120 0
-86 -198 0
-86 -225 0
-26 -86 0
-86 -151 0
-120 -198 0
-120 -225 0
-26 -120 0
-120 -151 0
-198 -225 0
-26 -198 0
-151 -198 0
-26 -225 0
-151 -225 0
-26 -151 0
-95 -110 0
-95 -205 0
-39 -95 0
-95 -165 0
-30 -95 0
-110 -205 0
-39 -110 0
-110 -165 0
-30 -110 0
-39 -205 0
-165 -205 0
-30 -205 0
-39 -165 0
-30 -39 0
-30 -165 0
-170 -211 0
-170 -234 0
-211 -234 0
-222 -255 0
-236 -255 0
-246 -255 0
-76 -255 0
-222 -236 0
-222 -246 0
-76 -222 0
-236 -246 0
-76 -236 0
-76 -246 0
-132 -156 0
-27 -132 0
-132 -233 0
-121 -132 0
-27 -156 0
-156 -233 0
-121 -156 0
-27 -233 0
-27 -121 0
-121 -233 0
-25 -94 0
-25 -127 0
-94 -127 0
-24 -192 0
-24 -116 0
-23 -24 0
-24 -43 0
-24 -194 0
-24 -154 0
-116 -192 0
-23 -192 0
-43 -192 0
-192 -194 0
-154 -192 0
-23 -116 0
-43 -116 0
-116 -194 0
-116 -154 0
-23 -43 0
-23 -194 0
-23 -154 0
-43 -194 0
-43 -154 0
-154 -194 0
-36 -208 0
-36 -97 0
-36 -187 0
-36 -124 0
-36 -112 0
-36 -71 0
-97 -208 0
-187 -208 0
-124 -208 0
-112 -208 0
-71 -208 0
-97 -187 0
-97 -124 0
-97 -112 0
-71 -97 0
-124 -187 0
-112 -187 0
-71 -187 0
-112 -124 0
-71 -124 0
-71 -112 0
-22 -146 0
-146 -193 0
-134 -146 0
-21 -146 0
-146 -206 0
-20 -146 0
-22 -193 0
-22 -134 0
-21 -22 0
-22 -206 0
-20 -22 0
-134 -193 0
-21 -193 0
-193 -206 0
-20 -193 0
-21 -134 0
-134 -206 0
-20 -134 0
-21 -206 0
-20 -21 0
-20 -206 0
-126 -212 0
-212 -223 0
-19 -212 0
-212 -226 0
-212 -247 0
-212 -253 0
-126 -223 0
-19 -126 0
-126 -226 0
-126 -247 0
-126 -253 0
-19 -223 0
-223 -226 0
-223 -247 0
-223 -253 0
-19 -226 0
-19 -247 0
-19 -253 0
-226 -247 0
-226 -253 0
-247 -253 0
-90 -196 0
-90 -201 0
-87 -90 0
-78 -90 0
-75 -90 0
-73 -90 0
-196 -201 0
-87 -196 0
-78 -196 0
-75 -196 0
-73 -196 0
-87 -201 0
-78 -201 0
-75 -201 0
-73 -201 0
-78 -87 0
-75 -87 0
-73 -87 0
-75 -78 0
-73 -78 0
-73 -75 0
-18 -69 0
-17 -18 0
-16 -18 0
-18 -63 0
-18 -57 0
-18 -54 0
-17 -69 0
-16 -69 0
-63 -69 0
-57 -69 0
-54 -69 0
-16 -17 0
-17 -63 0
-17 -57 0
-17 -54 0
-16 -63 0
-16 -57 0
-16 -54 0
-57 -63 0
-54 -63 0
-54 -57 0
-24 -36 0
-24 -146 0
-24 -212 0
-24 -90 0
-18 -24 0
-36 -146 0
-36 -212 0
-36 -90 0
-18 -36 0
-146 -212 0
-90 -146 0
-18 -146 0
-90 -212 0
-18 -212 0
-18 -90 0
-192 -208 0
-22 -192 0
-126 -192 0
-192 -196 0
-69 -192 0
-22 -208 0
-126 -208 0
-196 -208 0
-69 -208 0
-22 -126 0
-22 -196 0
-22 -69 0
-126 -196 0
-69 -126 0
-69 -196 0
-97 -116 0
-116 -193 0
-116 -223 0
-116 -201 0
-17 -116 0
-97 -193 0
-97 -223 0
-97 -201 0
-17 -97 0
-193 -223 0
-193 -201 0
-17 -193 0
-201 -223 0
-17 -223 0
-17 -201 0
-23 -187 0
-23 -134 0
-19 -23 0
-23 -87 0
-16 -23 0
-134 -187 0
-19 -187 0
-87 -187 0
-16 -187 0
-19 -134 0
-87 -134 0
-16 -134 0
-19 -87 0
-16 -19 0
-16 -87 0
-25 -43 0
-25 -124 0
-21 -25 0
-25 -226 0
-25 -78 0
-25 -63 0
-43 -124 0
-21 -43 0
-43 -226 0
-43 -78 0
-43 -63 0
-21 -124 0
-124 -226 0
-78 -124 0
-63 -124 0
-21 -226 0
-21 -78 0
-21 -63 0
-78 -226 0
-63 -226 0
-63 -78 0
-94 -194 0
-94 -112 0
-94 -206 0
-94 -247 0
-75 -94 0
-57 -94 0
-112 -194 0
-194 -206 0
-194 -247 0
-75 -194 0
-57 -194 0
-112 -206 0
-112 -247 0
-75 -112 0
-57 -112 0
-206 -247 0
-75 -206 0
-57 -206 0
-75 -247 0
-57 -247 0
-57 -75 0
-127 -154 0
-71 -127 0
-20 -127 0
-127 -253 0
-73 -127 0
-54 -127 0
-71 -154 0
-20 -154 0
-154 -253 0
-73 -154 0
-54 -154 0
-20 -71 0
-71 -253 0
-71 -73 0
-54 -71 0
-20 -253 0
-20 -73 0
-20 -54 0
-73 -253 0
-54 -253 0
-54 -73 0
-15 -179 0
-136 -179 0
-137 -179 0
-125 -179 0
-15 -136 0
-15 -137 0
-15 -125 0
-136 -137 0
-125 -136 0
-125 -137 0
-13 -14 0
-14 -166 0
-14 -114 0
-12 -14 0
-13 -166 0
-13 -114 0
-12 -13 0
-114 -166 0
-12 -166 0
-12 -114 0
-11 -182 0
-11 -215 0
-182 -215 0
-10 -188 0
-168 -188 0
-9 -188 0
-147 -188 0
-188 -248 0
-10 -168 0
-9 -10 0
-10 -147 0
-10 -248 0
-9 -168 0
-147 -168 0
-168 -248 0
-9 -147 0
-9 -248 0
-147 -248 0
-88 -89 0
-8 -89 0
-85 -89 0
-80 -89 0
-74 -89 0
-8 -88 0
-85 -88 0
-80 -88 0
-74 -88 0
-8 -85 0
-8 -80 0
-8 -74 0
-80 -85 0
-74 -85 0
-74 -80 0
-7 -70 0
-6 -7 0
-5 -7 0
-7 -66 0
-7 -56 0
-6 -70 0
-5 -70 0
-66 -70 0
-56 -70 0
-5 -6 0
-6 -66 0
-6 -56 0
-5 -66 0
-5 -56 0
-56 -66 0
-14 -179 0
-179 -188 0
-89 -179 0
-7 -179 0
-14 -188 0
-14 -89 0
-7 -14 0
-89 -188 0
-7 -188 0
-7 -89 0
-13 -15 0
-10 -15 0
-15 -88 0
-15 -70 0
-10 -13 0
-13 -88 0
-13 -70 0
-10 -88 0
-10 -70 0
-70 -88 0
-136 -166 0
-11 -136 0
-136 -168 0
-8 -136 0
-6 -136 0
-11 -166 0
-166 -168 0
-8 -166 0
-6 -166 0
-11 -168 0
-8 -11 0
-6 -11 0
-8 -168 0
-6 -168 0
-6 -8 0
-114 -137 0
-137 -182 0
-9 -137 0
-85 -137 0
-5 -137 0
-114 -182 0
-9 -114 0
-85 -114 0
-5 -114 0
-9 -182 0
-85 -182 0
-5 -182 0
-9 -85 0
-5 -9 0
-5 -85 0
-12 -125 0
-125 -215 0
-125 -147 0
-80 -125 0
-66 -125 0
-12 -215 0
-12 -147 0
-12 -80 0
-12 -66 0
-147 -215 0
-80 -215 0
-66 -215 0
-80 -147 0
-66 -147 0
-66 -80 0
-74 -248 0
-56 -248 0
-56 -74 0
-239 -242 0
-239 -250 0
-4 -239 0
-160 -239 0
-46 -239 0
-242 -250 0
-4 -242 0
-160 -242 0
-46 -242 0
-4 -250 0
-160 -250 0
-46 -250 0
-4 -160 0
-4 -46 0
-46 -160 0
-82 -181 0
-82 -163 0
-82 -119 0
-82 -108 0
-82 -101 0
-163 -181 0
-119 -181 0
-108 -181 0
-101 -181 0
-119 -163 0
-108 -163 0
-101 -163 0
-108 -119 0
-101 -119 0
-101 -108 0
-64 -229 0
-176 -229 0
-28 -229 0
-172 -229 0
-135 -229 0
-64 -176 0
-28 -64 0
-64 -172 0
-64 -135 0
-28 -176 0
-172 -176 0
-135 -176 0
-28 -172 0
-28 -135 0
-135 -172 0
-199 -209 0
-199 -218 0
-199 -224 0
-177 -199 0
-209 -218 0
-209 -224 0
-177 -209 0
-218 -224 0
-177 -218 0
-177 -224 0
-3 -227 0
-2 -227 0
-227 -237 0
-1 -227 0
-2 -3 0
-3 -237 0
-1 -3 0
-2 -237 0
-1 -2 0
-1 -237 0
-244 -249 0
-195 -244 0
-195 -249 0
-82 -239 0
-229 -239 0
-199 -239 0
-227 -239 0
-82 -229 0
-82 -199 0
-82 -227 0
-199 -229 0
-227 -229 0
-199 -227 0
-181 -242 0
-64 -242 0
-209 -242 0
-3 -242 0
-64 -181 0
-181 -209 0
-3 -181 0
-64 -209 0
-3 -64 0
-3 -209 0
-163 -250 0
-176 -250 0
-163 -176 0
-4 -119 0
-4 -28 0
-4 -218 0
-2 -4 0
-4 -244 0
-28 -119 0
-119 -218 0
-2 -119 0
-119 -244 0
-28 -218 0
-2 -28 0
-28 -244 0
-2 -218 0
-218 -244 0
-2 -244 0
-108 -160 0
-160 -172 0
-160 -224 0
-160 -237 0
-160 -249 0
-108 -172 0
-108 -224 0
-108 -237 0
-108 -249 0
-172 -224 0
-172 -237 0
-172 -249 0
-224 -237 0
-224 -249 0
-237 -249 0
-46 -101 0
-46 -135 0
-46 -177 0
-1 -46 0
-46 -195 0
-101 -135 0
-101 -177 0
-1 -101 0
-101 -195 0
-135 -177 0
-1 -135 0
-135 -195 0
-1 -177 0
-177 -195 0
-1 -195 0
-45 -191 0
-45 -117 0
-45 -167 0
-45 -207 0
-45 -98 0
-117 -191 0
-167 -191 0
-191 -207 0
-98 -191 0
-117 -167 0
-117 -207 0
-98 -117 0
-167 -207 0
-98 -167 0
-98 -207 0
-86 -202 0
-95 -202 0
-86 -95 0
-15 -179 0
-14 -179 0
-13 -179 0
-14 -15 0
-13 -15 0
-13 -14 0
-239 -242 0
-82 -239 0
-181 -239 0
-229 -239 0
-64 -239 0
-82 -242 0
-181 -242 0
-229 -242 0
-64 -242 0
-82 -181 0
-82 -229 0
-64 -82 0
-181 -229 0
-64 -181 0
-64 -229 0
-53 -171 0
-171 -210 0
-155 -171 0
-53 -210 0
-53 -155 0
-155 -210 0
-44 -128 0
-128 -143 0
-123 -128 0
-44 -143 0
-44 -123 0
-123 -143 0
-99 -183 0
-35 -148 0
-148 -190 0
-148 -217 0
-35 -190 0
-35 -217 0
-190 -217 0
-141 -232 0
-141 -185 0
-122 -141 0
-185 -232 0
-122 -232 0
-122 -185 0
-136 -137 0
-125 -136 0
-136 -166 0
-114 -136 0
-12 -136 0
-125 -137 0
-137 -166 0
-114 -137 0
-12 -137 0
-125 -166 0
-114 -125 0
-12 -125 0
-114 -166 0
-12 -166 0
-12 -114 0
-163 -250 0
-176 -250 0
-163 -176 0
-131 -254 0
-52 -254 0
-221 -254 0
-158 -254 0
-105 -254 0
-52 -131 0
-131 -221 0
-131 -158 0
-105 -131 0
-52 -221 0
-52 -158 0
-52 -105 0
-158 -221 0
-105 -221 0
-105 -158 0
-115 -149 0
-38 -149 0
-96 -149 0
-38 -115 0
-96 -115 0
-38 -96 0
-34 -129 0
-129 -178 0
-102 -129 0
-34 -178 0
-34 -102 0
-102 -178 0
-91 -152 0
-31 -91 0
-91 -111 0
-91 -113 0
-91 -144 0
-31 -152 0
-111 -152 0
-113 -152 0
-144 -152 0
-31 -111 0
-31 -113 0
-31 -144 0
-111 -113 0
-111 -144 0
-113 -144 0
-25 -94 0
-25 -127 0
-94 -127 0
-4 -160 0
-4 -46 0
-4 -119 0
-4 -108 0
-4 -101 0
-4 -28 0
-4 -172 0
-4 -135 0
-46 -160 0
-119 -160 0
-108 -160 0
-101 -160 0
-28 -160 0
-160 -172 0
-135 -160 0
-46 -119 0
-46 -108 0
-46 -101 0
-28 -46 0
-46 -172 0
-46 -135 0
-108 -119 0
-101 -119 0
-28 -119 0
-119 -172 0
-119 -135 0
-101 -108 0
-28 -108 0
-108 -172 0
-108 -135 0
-28 -101 0
-101 -172 0
-101 -135 0
-28 -172 0
-28 -135 0
-135 -172 0
-42 -197 0
-42 -203 0
-197 -203 0
-93 -169 0
-120 -138 0
-110 -138 0
-50 -138 0
-138 -198 0
-138 -205 0
-104 -138 0
-138 -225 0
-39 -138 0
-110 -120 0
-50 -120 0
-120 -198 0
-120 -205 0
-104 -120 0
-120 -225 0
-39 -120 0
-50 -110 0
-110 -198 0
-110 -205 0
-104 -110 0
-110 -225 0
-39 -110 0
-50 -198 0
-50 -205 0
-50 -104 0
-50 -225 0
-39 -50 0
-198 -205 0
-104 -198 0
-198 -225 0
-39 -198 0
-104 -205 0
-205 -225 0
-39 -205 0
-104 -225 0
-39 -104 0
-39 -225 0
-24 -192 0
-24 -36 0
-24 -208 0
-24 -146 0
-22 -24 0
-36 -192 0
-192 -208 0
-146 -192 0
-22 -192 0
-36 -208 0
-36 -146 0
-22 -36 0
-146 -208 0
-22 -208 0
-22 -146 0
-199 -209 0
-199 -227 0
-3 -199 0
-209 -227 0
-3 -209 0
-3 -227 0
-83 -214 0
-83 -231 0
-61 -83 0
-214 -231 0
-61 -214 0
-61 -231 0
-170 -211 0
-170 -234 0
-211 -234 0
-23 -116 0
-97 -116 0
-116 -187 0
-116 -193 0
-116 -134 0
-23 -97 0
-23 -187 0
-23 -193 0
-23 -134 0
-97 -187 0
-97 -193 0
-97 -134 0
-187 -193 0
-134 -187 0
-134 -193 0
-11 -182 0
-11 -215 0
-182 -215 0
-49 -200 0
-48 -49 0
-48 -200 0
-150 -164 0
-118 -164 0
-164 -174 0
-164 -235 0
-29 -164 0
-118 -150 0
-150 -174 0
-150 -235 0
-29 -150 0
-118 -174 0
-118 -235 0
-29 -118 0
-174 -235 0
-29 -174 0
-29 -235 0
-132 -255 0
-222 -255 0
-156 -255 0
-236 -255 0
-27 -255 0
-132 -222 0
-132 -156 0
-132 -236 0
-27 -132 0
-156 -222 0
-222 -236 0
-27 -222 0
-156 -236 0
-27 -156 0
-27 -236 0
-43 -194 0
-43 -154 0
-43 -124 0
-43 -112 0
-43 -71 0
-21 -43 0
-43 -206 0
-20 -43 0
-154 -194 0
-124 -194 0
-112 -194 0
-71 -194 0
-21 -194 0
-194 -206 0
-20 -194 0
-124 -154 0
-112 -154 0
-71 -154 0
-21 -154 0
-154 -206 0
-20 -154 0
-112 -124 0
-71 -124 0
-21 -124 0
-124 -206 0
-20 -124 0
-71 -112 0
-21 -112 0
-112 -206 0
-20 -112 0
-21 -71 0
-71 -206 0
-20 -71 0
-21 -206 0
-20 -21 0
-20 -206 0
-218 -224 0
-177 -218 0
-2 -218 0
-218 -237 0
-1 -218 0
-177 -224 0
-2 -224 0
-224 -237 0
-1 -224 0
-2 -177 0
-177 -237 0
-1 -177 0
-2 -237 0
-1 -2 0
-1 -237 0
-159 -238 0
-107 -238 0
-107 -159 0
-41 -173 0
-139 -173 0
-173 -256 0
-130 -173 0
-51 -173 0
-173 -220 0
-157 -173 0
-103 -173 0
-41 -139 0
-41 -256 0
-41 -130 0
-41 -51 0
-41 -220 0
-41 -157 0
-41 -103 0
-139 -256 0
-130 -139 0
-51 -139 0
-139 -220 0
-139 -157 0
-103 -139 0
-130 -256 0
-51 -256 0
-220 -256 0
-157 -256 0
-103 -256 0
-51 -130 0
-130 -220 0
-130 -157 0
-103 -130 0
-51 -220 0
-51 -157 0
-51 -103 0
-157 -220 0
-103 -220 0
-103 -157 0
-37 -153 0
-72 -153 0
-145 -153 0
-37 -72 0
-37 -145 0
-72 -145 0
-26 -184 0
-165 -184 0
-92 -184 0
-151 -184 0
-30 -184 0
-26 -165 0
-26 -92 0
-26 -151 0
-26 -30 0
-92 -165 0
-151 -165 0
-30 -165 0
-92 -151 0
-30 -92 0
-30 -151 0
-126 -212 0
-90 -212 0
-196 -212 0
-18 -212 0
-69 -212 0
-90 -126 0
-126 -196 0
-18 -126 0
-69 -126 0
-90 -196 0
-18 -90 0
-69 -90 0
-18 -196 0
-69 -196 0
-18 -69 0
-10 -188 0
-89 -188 0
-88 -188 0
-7 -188 0
-70 -188 0
-10 -89 0
-10 -88 0
-7 -10 0
-10 -70 0
-88 -89 0
-7 -89 0
-70 -89 0
-7 -88 0
-70 -88 0
-7 -70 0
-219 -240 0
-47 -219 0
-84 -219 0
-100 -219 0
-219 -230 0
-47 -240 0
-84 -240 0
-100 -240 0
-230 -240 0
-47 -84 0
-47 -100 0
-47 -230 0
-84 -100 0
-84 -230 0
-100 -230 0
-109 -241 0
-109 -204 0
-81 -109 0
-40 -109 0
-68 -109 0
-204 -241 0
-81 -241 0
-40 -241 0
-68 -241 0
-81 -204 0
-40 -204 0
-68 -204 0
-40 -81 0
-68 -81 0
-40 -68 0
-33 -106 0
-32 -33 0
-33 -67 0
-32 -106 0
-67 -106 0
-32 -67 0
-19 -223 0
-201 -223 0
-87 -223 0
-17 -223 0
-16 -223 0
-19 -201 0
-19 -87 0
-17 -19 0
-16 -19 0
-87 -201 0
-17 -201 0
-16 -201 0
-17 -87 0
-16 -87 0
-16 -17 0
-9 -168 0
-147 -168 0
-8 -168 0
-85 -168 0
-80 -168 0
-6 -168 0
-5 -168 0
-66 -168 0
-9 -147 0
-8 -9 0
-9 -85 0
-9 -80 0
-6 -9 0
-5 -9 0
-9 -66 0
-8 -147 0
-85 -147 0
-80 -147 0
-6 -147 0
-5 -147 0
-66 -147 0
-8 -85 0
-8 -80 0
-6 -8 0
-5 -8 0
-8 -66 0
-80 -85 0
-6 -85 0
-5 -85 0
-66 -85 0
-6 -80 0
-5 -80 0
-66 -80 0
-5 -6 0
-6 -66 0
-5 -66 0
-228 -243 0
-243 -251 0
-180 -243 0
-213 -243 0
-162 -243 0
-65 -243 0
-62 -243 0
-175 -243 0
-228 -251 0
-180 -228 0
-213 -228 0
-162 -228 0
-65 -228 0
-62 -228 0
-175 -228 0
-180 -251 0
-213 -251 0
-162 -251 0
-65 -251 0
-62 -251 0
-175 -251 0
-180 -213 0
-162 -180 0
-65 -180 0
-62 -180 0
-175 -180 0
-162 -213 0
-65 -213 0
-62 -213 0
-175 -213 0
-65 -162 0
-62 -162 0
-162 -175 0
-62 -65 0
-65 -175 0
-62 -175 0
-77 -245 0
-60 -245 0
-60 -77 0
-142 -186 0
-133 -186 0
-59 -186 0
-133 -142 0
-59 -142 0
-59 -133 0
-140 -252 0
-58 -140 0
-55 -140 0
-58 -252 0
-55 -252 0
-55 -58 0
-79 -189 0
-79 -216 0
-189 -216 0
-233 -246 0
-76 -246 0
-121 -246 0
-76 -233 0
-121 -233 0
-76 -121 0
-226 -247 0
-226 -253 0
-78 -226 0
-75 -226 0
-73 -226 0
-63 -226 0
-57 -226 0
-54 -226 0
-247 -253 0
-78 -247 0
-75 -247 0
-73 -247 0
-63 -247 0
-57 -247 0
-54 -247 0
-78 -253 0
-75 -253 0
-73 -253 0
-63 -253 0
-57 -253 0
-54 -253 0
-75 -78 0
-73 -78 0
-63 -78 0
-57 -78 0
-54 -78 0
-73 -75 0
-63 -75 0
-57 -75 0
-54 -75 0
-63 -73 0
-57 -73 0
-54 -73 0
-57 -63 0
-54 -63 0
-54 -57 0
-74 -248 0
-56 -248 0
-56 -74 0
-244 -249 0
-195 -244 0
-195 -249 0
